c turning on binary mode checking
c parsing input formula with 259840 variables and 1039929 clauses
c finished parsing, read 23148681 bytes from proof file
c detected empty clause; start verification via backward checking
c 13098 of 1039929 clauses in core                            
c 16391 of 598589 lemmas in core using 145646 resolution steps
c 0 RAT lemmas in core; 1139 redundant literals in core lemmas
s VERIFIED
c verification time: 3.346 seconds
